job_count = 22 ;
duration = [|8, 13, 19, 9|20, 28, 13, 8|14, 12, 7, 5|14, 15, 5, 8|5, 26, 18, 3|26, 22, 15, 5|31, 17, 11, 8|10, 5, 10, 8|9, 26, 7, 5|17, 4, 3, 4|19, 19, 19, 7|18, 20, 5, 8|29, 19, 9, 6|9, 24, 4, 3|23, 27, 11, 5|4, 20, 7, 1|37, 22, 16, 3|26, 24, 11, 8|22, 16, 11, 7|14, 24, 9, 6|19, 23, 5, 6|10, 4, 3, 7|] ;
machine_count = 4 ;
cost = [|18, 36, 37, 71|13, 38, 56, 77|15, 33, 42, 57|15, 29, 40, 62|14, 27, 47, 53|14, 31, 56, 49|16, 34, 40, 79|18, 31, 41, 42|14, 32, 59, 69|17, 30, 52, 71|11, 37, 46, 53|15, 23, 39, 70|16, 20, 40, 52|16, 33, 57, 59|17, 21, 55, 69|15, 38, 31, 79|17, 27, 52, 44|15, 39, 53, 73|15, 34, 36, 59|19, 34, 49, 77|19, 25, 51, 59|12, 30, 55, 59|] ;
deadline = [46, 46, 46, 46, 46, 46, 46, 46, 46, 46, 46, 46, 46, 46, 46, 46, 46, 46, 46, 46, 46, 46] ;
release = [0, 0, 0, 0, 0, 0, 0, 0, 0, 0, 0, 0, 0, 0, 0, 0, 0, 0, 0, 0, 0, 0] ;
resource = [|3, 3, 3, 3|2, 2, 2, 2|1, 1, 1, 1|8, 8, 8, 8|2, 2, 2, 2|7, 7, 7, 7|6, 6, 6, 6|2, 2, 2, 2|5, 5, 5, 5|4, 4, 4, 4|3, 3, 3, 3|8, 8, 8, 8|4, 4, 4, 4|2, 2, 2, 2|4, 4, 4, 4|3, 3, 3, 3|3, 3, 3, 3|9, 9, 9, 9|4, 4, 4, 4|4, 4, 4, 4|6, 6, 6, 6|9, 9, 9, 9|] ;
capacities = [10, 10, 10, 10] ;
